p tw 1452 1591
1 2
2 565
3 114
4 15
5 6
6 7
7 8
8 9
9 10
10 11
11 12
12 13
13 14
14 16
15 26
16 17
17 18
18 19
19 20
20 125
21 22
22 23
23 24
24 25
25 27
26 37
26 59
27 28
28 740
29 30
30 31
31 32
32 33
33 34
34 35
34 61
35 36
36 38
36 61
37 48
38 39
39 40
40 41
40 499
41 42
42 43
43 44
44 45
45 46
45 47
46 47
47 49
48 81
49 50
50 51
51 52
52 53
53 54
54 55
55 56
56 57
57 58
58 60
59 70
60 289
61 62
62 63
63 64
64 65
65 66
66 67
66 88
67 68
68 69
69 71
70 81
71 72
72 73
73 74
74 75
75 76
76 77
77 78
78 79
79 80
80 82
81 92
82 83
83 84
84 85
85 86
86 87
87 88
88 89
89 90
89 97
90 91
91 93
92 103
93 94
93 97
94 95
95 96
96 97
97 98
98 99
99 100
100 101
101 102
102 104
103 115
104 105
105 106
106 107
107 108
108 109
109 110
110 111
111 112
112 113
112 116
113 116
113 118
114 225
115 126
116 117
117 118
118 119
119 120
120 121
121 122
122 123
122 499
123 124
124 125
125 127
126 137
127 128
128 129
128 138
129 130
130 131
131 132
132 133
133 134
134 135
135 136
136 289
137 148
138 139
139 140
140 141
140 154
141 142
142 143
143 144
144 145
145 146
146 147
147 149
148 159
149 150
150 151
151 152
152 153
153 289
154 155
155 156
155 176
156 157
157 158
157 161
158 160
159 170
160 161
161 162
162 163
163 164
164 165
164 174
165 166
166 167
167 168
168 169
168 171
169 171
170 181
171 172
172 173
173 176
174 175
175 176
176 177
177 178
178 179
179 180
180 182
181 192
181 1083
182 183
182 193
183 184
184 185
185 186
185 193
186 187
187 188
188 189
189 190
190 191
191 291
192 203
193 194
194 195
195 196
195 499
196 197
197 198
198 199
199 200
200 201
201 291
202 204
203 214
203 314
204 205
205 206
205 499
206 207
207 208
208 209
209 499
210 211
211 212
211 215
212 213
213 215
214 226
215 216
216 217
217 218
218 219
219 220
220 221
220 240
221 222
222 223
222 231
223 224
224 227
225 336
226 237
226 381
227 228
228 229
229 230
230 233
231 232
232 233
233 234
234 235
235 236
236 238
237 248
238 239
239 284
240 241
241 242
242 243
242 247
243 244
244 245
245 246
246 499
247 249
248 259
248 54
249 250
249 499
250 284
251 252
252 253
252 255
253 254
254 255
255 256
256 257
257 258
258 260
259 270
260 261
261 262
261 271
262 263
263 264
264 265
265 266
266 267
267 268
268 269
269 284
270 281
270 54
271 272
272 273
272 499
273 284
274 275
275 284
276 277
277 278
278 279
278 499
279 280
280 282
281 292
282 283
283 499
284 285
285 286
286 287
287 288
288 289
289 290
290 291
291 293
292 303
292 54
293 294
294 295
295 296
296 297
297 298
298 299
299 300
300 301
301 302
302 304
303 499
304 305
305 306
306 307
307 308
308 309
309 310
310 311
311 312
312 313
313 315
314 325
315 316
316 317
317 318
318 319
319 320
320 321
321 322
322 323
323 324
324 326
325 337
326 327
327 328
328 329
329 330
330 331
331 332
332 333
333 334
334 335
335 338
336 447
337 348
338 339
339 340
340 341
341 342
342 343
343 344
344 345
345 346
346 347
347 349
348 359
349 350
350 351
351 352
352 353
353 354
354 355
355 356
356 357
357 358
358 360
359 370
360 361
361 362
362 363
363 364
364 365
365 366
366 367
367 368
368 369
369 371
370 1089
371 372
372 373
373 374
374 375
375 376
376 377
377 378
378 379
379 380
380 382
381 392
382 383
383 384
384 385
385 386
386 387
387 388
388 389
389 390
390 391
391 393
392 403
393 394
394 395
395 396
395 406
396 397
397 398
398 399
399 400
400 401
401 402
402 404
403 414
404 405
405 416
406 407
407 408
408 409
409 410
410 411
411 412
412 413
413 415
414 179
415 416
416 417
417 418
418 419
419 420
420 421
421 422
422 423
423 424
424 426
425 436
426 427
427 428
428 429
429 430
430 431
431 432
432 433
433 434
434 435
435 437
436 448
437 438
438 439
439 440
440 441
441 442
442 443
443 444
444 445
445 446
446 449
447 510
447 577
448 459
449 450
450 451
451 452
452 453
453 454
454 455
455 456
456 457
457 458
458 460
459 470
459 499
460 461
461 462
462 463
463 464
464 465
465 466
466 467
467 468
468 469
469 471
470 481
471 472
472 473
473 474
474 475
475 476
476 477
477 478
478 479
479 480
480 482
481 492
482 483
483 484
484 485
485 486
486 487
487 488
488 489
489 490
490 491
491 493
492 125
493 494
494 495
495 496
496 497
497 498
498 504
499 500
500 501
501 502
502 504
503 506
504 505
506 507
507 508
508 509
508 499
509 511
510 521
511 512
512 513
513 514
514 515
515 516
516 517
517 518
518 519
519 520
520 522
521 532
522 523
523 524
523 499
524 525
525 526
526 527
527 528
528 529
529 530
530 531
531 533
532 543
532 577
533 534
534 535
535 536
536 537
537 538
538 539
539 540
539 499
540 541
541 542
542 544
543 554
544 545
544 499
545 546
546 547
547 548
548 549
549 550
550 551
550 558
551 552
552 553
553 555
554 566
555 556
556 557
557 558
557 574
558 559
559 560
560 561
561 562
562 563
563 564
564 567
564 499
565 676
566 125
567 568
568 569
569 570
570 571
571 572
572 573
573 574
573 499
574 575
575 576
576 578
577 588
578 579
578 499
579 580
580 581
581 582
582 583
583 584
583 656
584 585
585 586
586 587
587 589
588 599
589 590
589 499
590 591
591 592
592 593
593 594
594 595
594 499
595 596
596 597
597 598
598 600
599 610
599 499
600 601
601 602
602 603
603 604
604 605
604 615
605 606
606 607
607 608
608 609
609 611
610 621
611 612
612 613
613 614
614 625
615 616
616 617
617 618
618 619
619 620
620 622
621 632
622 623
623 624
624 625
625 626
626 627
627 628
628 629
629 630
630 631
631 633
632 643
633 634
634 635
635 636
636 637
637 638
638 639
639 640
640 641
641 642
642 644
643 654
644 645
645 646
646 647
647 648
648 649
649 650
650 651
651 652
652 653
653 655
654 1089
655 455
656 657
657 658
658 659
659 660
659 499
660 661
661 662
662 663
663 664
663 499
664 666
665 677
666 667
667 668
668 669
668 499
669 670
670 671
671 672
672 673
673 674
674 675
675 678
676 787
677 688
678 679
679 680
680 681
681 682
682 683
682 716
683 684
684 685
685 686
685 712
686 687
687 689
688 699
688 503
689 690
690 691
691 692
692 693
692 712
693 694
694 695
695 696
696 697
697 698
698 700
698 712
699 710
700 701
701 702
702 703
703 704
704 705
704 712
705 706
706 707
707 708
708 709
709 711
710 721
711 712
711 1124
712 713
713 714
714 715
715 679
716 717
717 718
718 719
719 720
720 722
721 732
722 723
723 724
723 740
724 725
725 726
726 727
727 728
728 729
729 730
730 731
731 733
732 743
733 734
734 735
735 736
736 737
736 891
737 738
738 739
739 740
739 729
740 741
741 742
742 744
743 754
744 745
745 746
746 747
746 499
747 748
748 749
749 750
750 751
751 752
752 753
753 755
754 765
754 910
755 756
756 757
757 758
758 759
759 760
760 761
761 762
762 763
763 764
764 766
765 776
766 767
767 768
768 769
769 770
770 771
771 772
772 773
773 774
774 775
775 777
776 788
777 778
778 779
779 780
780 781
781 782
782 783
783 784
784 785
785 786
786 789
787 898
788 799
789 790
790 791
791 792
792 793
793 794
794 795
795 796
796 797
797 798
798 800
799 810
800 801
801 802
802 803
803 804
804 805
805 806
806 807
807 808
808 809
809 811
810 821
810 910
811 812
812 813
813 814
814 815
815 816
816 817
817 818
818 819
819 820
820 822
821 832
822 823
823 824
824 825
825 826
826 827
826 849
827 828
828 829
829 830
830 831
831 833
832 843
833 834
834 835
834 849
835 836
836 837
837 838
838 839
839 840
840 841
841 842
841 849
842 844
843 854
844 845
845 846
846 847
847 848
848 849
849 850
850 851
851 852
852 853
853 855
854 865
855 856
856 857
857 858
858 859
859 860
860 861
861 862
862 863
863 864
864 866
865 876
865 910
866 867
867 868
868 869
869 870
870 871
871 872
872 873
873 874
874 875
875 877
876 887
877 878
878 879
879 880
880 881
881 882
882 883
883 884
884 885
885 886
886 888
887 899
888 889
889 890
890 416
891 892
892 893
893 894
894 895
895 896
896 897
897 900
898 1009
899 910
900 901
901 902
902 903
902 906
903 904
904 905
905 927
906 907
907 908
908 909
908 923
909 911
909 917
910 921
911 912
912 913
913 914
914 915
915 916
916 917
916 923
917 918
918 919
919 920
920 922
921 932
922 923
923 924
924 925
925 926
926 927
926 894
927 928
928 929
928 499
929 930
930 931
931 933
932 943
933 934
934 935
935 936
936 937
937 938
938 939
939 940
940 941
941 942
942 944
943 954
944 945
945 946
946 947
947 948
948 949
949 950
950 951
951 952
952 953
953 955
954 965
955 956
956 957
957 958
958 959
959 960
960 961
961 962
962 963
963 964
964 966
965 976
966 967
967 968
968 969
969 970
970 971
971 972
972 973
973 974
974 975
975 977
976 987
976 1010
977 978
978 979
979 980
980 981
981 982
982 983
983 984
984 985
985 986
986 988
987 998
988 989
989 990
990 991
991 992
992 993
993 994
994 995
995 996
996 997
997 999
998 1010
998 1109
999 1000
1000 1001
1001 1002
1002 1003
1003 1004
1004 1005
1005 1006
1006 1007
1007 1008
1008 1011
1009 1120
1010 1021
1011 1012
1012 1013
1013 1014
1014 1015
1015 1016
1016 1017
1017 1018
1017 1083
1018 1019
1019 1020
1020 1022
1021 1032
1022 1023
1023 1024
1024 1025
1025 1026
1026 1027
1027 1028
1028 1029
1029 1030
1030 1031
1030 1083
1031 1033
1032 1043
1033 1034
1034 1035
1035 1036
1035 1083
1036 1037
1037 1038
1037 1040
1038 1039
1039 1020
1040 1041
1041 1042
1042 1044
1042 1073
1043 1054
1044 1045
1045 1046
1046 1047
1047 1048
1048 1049
1048 1073
1049 1050
1050 1051
1051 1052
1052 1053
1053 1055
1054 1065
1055 1056
1056 1057
1057 1058
1058 1059
1059 1060
1060 1061
1061 1062
1062 1063
1063 1064
1063 1067
1064 1066
1065 1076
1066 1069
1067 1068
1068 1069
1069 1070
1070 1071
1071 1072
1072 1083
1073 1074
1074 1075
1075 1077
1076 1087
1076 499
1077 1078
1078 1079
1079 1080
1079 1083
1080 1081
1081 1082
1082 1020
1083 1084
1084 1085
1085 1086
1086 1088
1087 1098
1088 1089
1089 1090
1090 1091
1091 1092
1092 1093
1093 1094
1094 1095
1095 1096
1096 1097
1097 1099
1098 499
1099 1100
1100 1101
1101 1102
1102 1103
1103 1104
1104 1105
1105 1106
1106 1107
1107 1108
1108 1110
1109 1121
1110 1111
1111 1112
1112 1113
1113 1114
1114 1115
1115 1116
1116 1117
1117 1118
1118 1119
1119 1122
1120 1231
1121 1132
1121 499
1122 1123
1123 297
1124 1125
1125 1126
1126 1127
1127 1128
1128 1129
1129 1130
1130 1131
1131 1133
1131 1137
1132 1143
1133 1134
1134 1135
1135 1136
1136 499
1137 1138
1138 1139
1139 1140
1140 1141
1141 1142
1142 1144
1143 1154
1144 1145
1145 1146
1146 1147
1147 1148
1148 1149
1149 1150
1150 1151
1151 1152
1151 1159
1152 1153
1153 1155
1154 1165
1154 425
1155 1156
1156 1157
1157 1158
1158 1159
1158 1212
1159 1160
1160 1161
1161 1162
1162 1163
1163 1164
1164 1166
1164 1172
1165 1176
1166 1167
1167 1168
1168 1169
1169 1170
1170 1171
1171 1172
1171 1212
1172 1173
1173 1174
1173 1180
1174 1175
1175 1177
1176 1187
1177 1178
1178 1179
1179 1180
1179 1212
1180 1181
1181 1182
1182 1183
1183 1184
1184 1185
1185 1186
1186 1188
1187 1198
1188 1189
1188 284
1189 1190
1190 1191
1191 1192
1192 1193
1193 1194
1194 1195
1195 1196
1195 284
1196 1197
1197 1199
1198 1209
1199 1200
1200 1201
1201 1202
1202 1203
1203 1204
1203 284
1204 1205
1205 1206
1206 1207
1207 1208
1208 1210
1209 1220
1209 499
1210 1211
1211 1212
1211 284
1212 1213
1213 1214
1214 1215
1215 1216
1216 1217
1217 1218
1217 1316
1218 1219
1219 1221
1220 1232
1221 1222
1221 1316
1222 1223
1223 1224
1224 1225
1225 1226
1226 1227
1227 1228
1228 1229
1229 1230
1230 1233
1231 1342
1232 1243
1233 1234
1234 1235
1234 1316
1235 1236
1236 1237
1237 1238
1238 1239
1239 1240
1240 1241
1241 1242
1241 1316
1242 1244
1243 1254
1244 1245
1245 1246
1246 1247
1247 1248
1248 1249
1249 1250
1249 1316
1250 1251
1251 1252
1252 1253
1253 1255
1254 1265
1254 1354
1255 1256
1256 1257
1257 1258
1257 1316
1258 1259
1259 1260
1260 1261
1261 1262
1262 1263
1263 1264
1264 1266
1265 1276
1266 1267
1267 1268
1268 1269
1269 1270
1270 1271
1271 1272
1272 1273
1273 1274
1273 1308
1274 1275
1275 1277
1276 1287
1277 1278
1278 1279
1279 1280
1280 1281
1281 1282
1282 1283
1283 1284
1284 1285
1285 1286
1286 1288
1287 1298
1287 1320
1288 1289
1289 1290
1290 1291
1291 1292
1291 1293
1292 1293
1293 1294
1294 1295
1295 1296
1296 1297
1297 1299
1298 1309
1299 1300
1300 1301
1301 1302
1302 1303
1303 1304
1304 1305
1305 1306
1306 1307
1307 1308
1308 1310
1309 1320
1309 4
1310 1311
1311 1312
1312 1313
1313 1314
1314 1315
1315 1316
1316 1317
1317 1318
1318 1319
1319 1321
1320 1331
1321 1322
1322 1323
1322 499
1323 1324
1324 1325
1324 499
1325 1326
1326 1327
1326 1353
1326 29
1326 210
1326 251
1326 276
1326 274
1326 202
1327 1328
1328 1329
1329 1330
1329 1345
1330 1332
1331 1343
1332 1333
1333 1334
1334 1335
1335 1336
1335 1339
1336 1337
1337 1338
1338 1339
1339 1340
1340 1341
1341 1344
1342 3
1342 665
1343 1354
1343 4
1344 125
1345 1346
1346 1347
1347 1348
1348 1349
1349 1350
1350 1351
1351 1352
1351 499
1352 1083
1353 1355
1354 1365
1355 1356
1356 1357
1356 21
1357 1358
1358 1359
1359 1360
1360 1361
1361 1362
1362 1363
1362 21
1363 1364
1364 1366
1365 1376
1366 1367
1367 1368
1368 1369
1369 1370
1369 1435
1370 1371
1371 1372
1372 1373
1373 1374
1374 1375
1375 1377
1376 1387
1377 1378
1378 1379
1379 1380
1380 1381
1381 1382
1382 1383
1382 1435
1383 1384
1384 1385
1385 1386
1386 1388
1386 1435
1387 1398
1388 1389
1389 1390
1389 1392
1390 1391
1391 1372
1392 1393
1393 1394
1394 1395
1394 1425
1395 1396
1396 1397
1397 1399
1398 1409
1399 1400
1400 1401
1400 1425
1401 1402
1402 1403
1403 1404
1404 1405
1405 1406
1406 1407
1407 1408
1408 1410
1409 1420
1410 1411
1411 1412
1412 1413
1413 1414
1414 1415
1415 1416
1415 1418
1416 1417
1417 1421
1418 1419
1419 1421
1420 1431
1421 1422
1422 1423
1423 1424
1424 1435
1425 1426
1426 1427
1427 1428
1428 1429
1429 1430
1430 1432
1430 1435
1431 1442
1432 1433
1433 1434
1434 1372
1435 1436
1436 1437
1437 1438
1438 1439
1439 1440
1440 1441
1441 1443
1442 289
1443 1444
1444 1445
1445 1446
1446 1447
1447 1448
1448 1449
1449 1450
1450 1451
1451 1452
1452 5
